(set-logic QF_S)
(declare-fun H () String)
(declare-fun K () String)
(declare-fun F () String)
(declare-fun G () String)
(declare-fun J () String)
(declare-fun L () String)
(declare-fun M () String)
(assert (= (str.++  F "aa" F F "a" F "aa" F F "b" H H "b" J J "b" L)  (str.++  "a" F F G H "a" J H "a" J "b" K L K L "b" M M "baa") ))
(check-sat)
(get-model)
